1128
0 54 177 292 352 391 426 503 607 673 
0 54 100 134 231 328 347 406 427 498 
0 66 90 141 169 267 345 432 457 462 
0 90 139 221 292 365 377 460 542 629 
54 137 186 209 252 328 406 496 544 601 
0 114 169 281 365 432 496 542 601 620 
127 352 513 554 607 696 753 844 858 927 
0 137 221 267 376 464 490 518 673 781 
200 554 629 696 781 791 881 919 1014 1111 
54 118 186 457 584 649 753 796 881 927 
